# Solution for model GasLib-40
# Objective value = 9.9744934307241380e+01
loadshed[innode_1] 0
loadshed[innode_2] 0
loadshed[innode_3] 0
loadshed[innode_4] 0
loadshed[innode_5] 0
loadshed[innode_6] 0
loadshed[innode_7] 0
loadshed[innode_8] 0
loadshed[source_1] 1.4839842650251955e-02
loadshed[source_2] 3.2033148936925226e-01
loadshed[source_3] 2.9576521707953707e-01
loadshed[sink_1] 1
loadshed[sink_2] 0
loadshed[sink_3] 0
loadshed[sink_4] 0
loadshed[sink_5] 0
loadshed[sink_6] 0
loadshed[sink_7] 0
loadshed[sink_8] 0
loadshed[sink_9] 9.9949503377607163e-01
loadshed[sink_10] 0
loadshed[sink_11] 0
loadshed[sink_12] 1
loadshed[sink_13] 0
loadshed[sink_14] 0
loadshed[sink_15] 0
loadshed[sink_16] 0
loadshed[sink_17] 0
loadshed[sink_18] 0
loadshed[sink_19] 0
loadshed[sink_20] 0
loadshed[sink_21] 1
loadshed[sink_22] 1.5700240102939042e-01
loadshed[sink_23] 0
loadshed[sink_24] 9.4255587315324507e-01
loadshed[sink_25] 0
loadshed[sink_26] 1
loadshed[sink_27] 0
loadshed[sink_28] 0
loadshed[sink_29] 0
flow[source_1,sink_3] 1.5574424293102092e+02
flow[innode_1,sink_16] 1.6354166666666970e+01
flow[innode_6,sink_13] 3.1464942139980110e+00
flow[sink_13,sink_14] -1.3207672452668657e+01
flow[sink_14,sink_10] -2.9561839119335325e+01
flow[sink_25,sink_26] 0
flow[sink_26,sink_9] 0
flow[sink_9,sink_18] -0.00825830178574094
flow[sink_26,sink_4] 0
flow[sink_4,sink_20] -6.3414786647930811e+01
flow[sink_18,sink_6] -1.6362424968452409e+01
flow[sink_25,innode_8] -1.2303590959768455e+02
flow[sink_6,sink_7] -4.6503114868284257e+01
flow[sink_6,sink_22] 1.3786523233165179e+01
flow[sink_7,sink_24] 9.3945082447297223e-01
flow[sink_22,sink_1] 0
flow[sink_24,sink_21] 0
flow[sink_21,sink_12] 0
flow[sink_7,sink_5] -6.3796732359423892e+01
flow[sink_5,sink_17] -8.0150899026090556e+01
flow[sink_17,sink_4] -4.7060619981264139e+01
flow[sink_17,sink_8] -4.9444445711493088e+01
flow[sink_3,sink_23] 16.3541666666697
flow[sink_8,sink_20] -6.5798612378159760e+01
flow[sink_25,sink_20] 1.4556756569275717e+02
flow[sink_25,sink_15] -4.2032316975738311e+01
flow[sink_15,sink_29] -7.4740650309089233e+01
flow[sink_29,sink_28] 1.6354166666667879e+01
flow[sink_29,sink_2] 0
flow[sink_2,sink_15] -1.6354166666684250e+01
flow[sink_29,innode_7] -1.0744898364242341e+02
flow[innode_4,sink_19] 4.2830853838611695e+01
flow[sink_19,innode_3] 3.8368345617080791e+01
flow[innode_4,innode_5] 6.8501818614057328e+01
flow[sink_27,innode_5] -6.8501818614057328e+01
flow[sink_27,sink_19] 5.2147651947390663e+01
flow[sink_10,sink_11] 3.2708333333333641e+01
flow[sink_10,innode_2] -4.0255993502254839e+01
flow[sink_10,innode_3] -3.8368345617080791e+01
flow[innode_6,sink_25] -3.1464942139980110e+00
flow[sink_11,innode_1] 1.6354166666666970e+01
flow[sink_19,innode_2] 4.0255993502254839e+01
flow[source_3,innode_4] 1.1133267245266902e+02
flow[source_2,innode_7] 1.0744898364242341e+02
flow[sink_3,innode_8] 1.2303590959768455e+02
pressure[innode_1] 7.6998666150464075e+01
pressure[innode_2] 7.9278062977360250e+01
pressure[innode_3] 7.9193100620735052e+01
pressure[innode_4] 81.01325
pressure[innode_5] 8.0966130837045171e+01
pressure[innode_6] 7.5745843818735935e+01
pressure[innode_7] 81.01325
pressure[innode_8] 8.0492656492338909e+01
pressure[source_1] 81.01325
pressure[source_2] 81.01325
pressure[source_3] 81.01325
pressure[sink_1] 1.0132500000000002e+00
pressure[sink_2] 7.5896348763509238e+01
pressure[sink_3] 8.0492656492338909e+01
pressure[sink_4] 3.6390577639756216e+01
pressure[sink_5] 2.8621413291564490e+01
pressure[sink_6] 1.4504742739715779e+00
pressure[sink_7] 2.08885119446406
pressure[sink_8] 3.6457743311875817e+01
pressure[sink_9] 1.0132499999999152e+00
pressure[sink_10] 7.7150367458067620e+01
pressure[sink_11] 7.6998666150464075e+01
pressure[sink_12] 1.01325
pressure[sink_13] 75.7284977219622
pressure[sink_14] 7.5752133976861188e+01
pressure[sink_15] 7.5949741513275683e+01
pressure[sink_16] 75.9770163156464
pressure[sink_17] 3.4592075921669938e+01
pressure[sink_18] 1.0135488099724956e+00
pressure[sink_19] 7.9278062977360250e+01
pressure[sink_20] 4.1042981250913513e+01
pressure[sink_21] 1.01325
pressure[sink_22] 1.0132500000000002e+00
pressure[sink_23] 8.0327938480679123e+01
pressure[sink_24] 1.01325
pressure[sink_25] 7.5745843818735935e+01
pressure[sink_26] 1.0132500000000002e+00
pressure[sink_27] 8.0397692320299143e+01
pressure[sink_28] 7.7844128344857808e+01
pressure[sink_29] 7.8139410618474983e+01
interdiction[source_1,sink_3] 0
interdiction[innode_1,sink_16] 0
interdiction[innode_6,sink_13] 0
interdiction[sink_13,sink_14] 0
interdiction[sink_14,sink_10] 0
interdiction[sink_25,sink_26] 1
interdiction[sink_26,sink_9] 0
interdiction[sink_9,sink_18] 0
interdiction[sink_26,sink_4] 1
interdiction[sink_4,sink_20] 0
interdiction[sink_18,sink_6] 0
interdiction[sink_25,innode_8] 0
interdiction[sink_6,sink_7] 0
interdiction[sink_6,sink_22] 0
interdiction[sink_7,sink_24] 0
interdiction[sink_22,sink_1] 0
interdiction[sink_24,sink_21] 0
interdiction[sink_21,sink_12] 0
interdiction[sink_7,sink_5] 0
interdiction[sink_5,sink_17] 0
interdiction[sink_17,sink_4] 0
interdiction[sink_17,sink_8] 0
interdiction[sink_3,sink_23] 0
interdiction[sink_8,sink_20] 0
interdiction[sink_25,sink_20] 0
interdiction[sink_25,sink_15] 0
interdiction[sink_15,sink_29] 0
interdiction[sink_29,sink_28] 0
interdiction[sink_29,sink_2] 1
interdiction[sink_2,sink_15] 0
interdiction[sink_29,innode_7] 0
interdiction[innode_4,sink_19] 0
interdiction[sink_19,innode_3] 0
interdiction[innode_4,innode_5] 0
interdiction[sink_27,innode_5] 0
interdiction[sink_27,sink_19] 0
interdiction[sink_10,sink_11] 0
interdiction[sink_10,innode_2] 0
interdiction[sink_10,innode_3] 0
interdiction[innode_6,sink_25] 0
interdiction[sink_11,innode_1] 0
interdiction[sink_19,innode_2] 0
interdiction[source_3,innode_4] 0
interdiction[source_2,innode_7] 0
interdiction[sink_3,innode_8] 0
WCcheckFlow[source_1,sink_3] 39
WCcheckFlow[innode_1,sink_16] 1
WCcheckFlow[innode_6,sink_13] 13
WCcheckFlow[sink_13,sink_14] 12
WCcheckFlow[sink_14,sink_10] 11
WCcheckFlow[sink_25,sink_26] 0
WCcheckFlow[sink_26,sink_9] -1
WCcheckFlow[sink_9,sink_18] -2
WCcheckFlow[sink_26,sink_4] 0
WCcheckFlow[sink_4,sink_20] -14
WCcheckFlow[sink_18,sink_6] -3
WCcheckFlow[sink_25,innode_8] -36
WCcheckFlow[sink_6,sink_7] -6
WCcheckFlow[sink_6,sink_22] 2
WCcheckFlow[sink_7,sink_24] 3
WCcheckFlow[sink_22,sink_1] 1
WCcheckFlow[sink_24,sink_21] 2
WCcheckFlow[sink_21,sink_12] 1
WCcheckFlow[sink_7,sink_5] -10
WCcheckFlow[sink_5,sink_17] -11
WCcheckFlow[sink_17,sink_4] -13
WCcheckFlow[sink_17,sink_8] 1
WCcheckFlow[sink_3,sink_23] 1
WCcheckFlow[sink_8,sink_20] 0
WCcheckFlow[sink_25,sink_20] 15
WCcheckFlow[sink_25,sink_15] 6
WCcheckFlow[sink_15,sink_29] 4
WCcheckFlow[sink_29,sink_28] 1
WCcheckFlow[sink_29,sink_2] 0
WCcheckFlow[sink_2,sink_15] -1
WCcheckFlow[sink_29,innode_7] 2
WCcheckFlow[innode_4,sink_19] -4
WCcheckFlow[sink_19,innode_3] -5
WCcheckFlow[innode_4,innode_5] 2
WCcheckFlow[sink_27,innode_5] -1
WCcheckFlow[sink_27,sink_19] 0
WCcheckFlow[sink_10,sink_11] 3
WCcheckFlow[sink_10,innode_2] 1
WCcheckFlow[sink_10,innode_3] 6
WCcheckFlow[innode_6,sink_25] -14
WCcheckFlow[sink_11,innode_1] 2
WCcheckFlow[sink_19,innode_2] 0
WCcheckFlow[source_3,innode_4] -1
WCcheckFlow[source_2,innode_7] -1
WCcheckFlow[sink_3,innode_8] 37
